SECTION Graph
Nodes 615
Edges 1232
E 1 558 7
E 2 3 14
E 3 4 1
E 5 211 10
E 6 211 8
E 6 214 6
E 6 218 19
E 7 8 1
E 7 556 7
E 7 559 1
E 8 9 14
E 8 560 1
E 9 10 1
E 9 561 1
E 10 562 1
E 11 12 1
E 11 545 7
E 11 549 1
E 12 13 14
E 12 551 1
E 13 14 1
E 13 557 1
E 14 558 1
E 15 16 1
E 15 533 30
E 15 541 10
E 15 547 1
E 16 17 14
E 16 542 10
E 16 548 1
E 17 18 1
E 17 550 10
E 17 555 1
E 18 552 10
E 18 556 1
E 18 559 7
E 19 20 1
E 19 522 30
E 19 537 1
E 20 21 14
E 20 539 1
E 21 22 1
E 21 543 1
E 22 545 1
E 23 24 1
E 23 27 21
E 23 527 30
E 24 25 14
E 24 28 21
E 25 26 1
E 25 29 21
E 26 30 21
E 27 28 1
E 27 514 30
E 27 529 3
E 28 29 14
E 28 530 3
E 29 30 1
E 29 535 3
E 30 536 3
E 31 32 1
E 31 511 11
E 31 516 7
E 31 523 10
E 32 33 14
E 32 513 11
E 32 526 10
E 33 34 1
E 33 521 11
E 33 531 10
E 34 522 11
E 34 533 10
E 34 541 30
E 35 36 1
E 35 492 22
E 35 495 6
E 35 511 14
E 36 37 14
E 36 496 6
E 36 513 14
E 37 38 1
E 37 503 6
E 37 521 14
E 38 504 6
E 38 522 14
E 39 40 1
E 39 490 7
E 39 495 19
E 40 41 14
E 40 496 19
E 41 42 1
E 41 503 19
E 42 504 19
E 43 44 1
E 43 485 19
E 43 488 7
E 43 491 6
E 44 45 14
E 44 486 19
E 44 492 6
E 45 46 1
E 45 489 19
E 45 515 31
E 46 490 19
E 46 495 7
E 46 516 31
E 47 48 1
E 47 482 76
E 47 517 1
E 48 49 14
E 48 518 1
E 49 50 1
E 49 524 1
E 50 527 1
E 51 52 1
E 51 461 76
E 51 493 6
E 51 497 3
E 52 53 14
E 52 494 6
E 52 498 3
E 53 54 1
E 53 501 6
E 53 512 3
E 54 502 6
E 54 514 3
E 54 529 30
E 55 56 1
E 55 394 7
E 55 395 5
E 55 409 20
E 56 57 14
E 56 396 5
E 56 411 20
E 57 58 1
E 57 403 5
E 57 420 20
E 58 404 5
E 58 421 20
E 59 60 1
E 59 374 7
E 59 395 20
E 60 61 14
E 60 396 20
E 61 62 1
E 61 403 20
E 62 404 20
E 63 64 1
E 63 78 7
E 63 387 12
E 63 406 21
E 64 65 14
E 64 388 12
E 64 408 21
E 65 66 1
E 65 393 20
E 65 417 21
E 66 394 20
E 66 409 7
E 66 419 21
E 67 68 1
E 67 82 7
E 67 370 8
E 67 382 5
E 68 69 14
E 68 361 20
E 68 384 5
E 69 70 1
E 69 373 20
E 69 393 5
E 70 374 20
E 70 394 5
E 70 395 7
E 71 72 1
E 71 385 12
E 71 390 7
E 71 410 26
E 72 73 14
E 72 386 12
E 72 413 26
E 73 74 1
E 73 398 12
E 73 424 30
E 74 400 12
E 74 406 7
E 74 426 30
E 75 76 1
E 75 367 12
E 75 372 7
E 75 385 9
E 76 77 14
E 76 369 12
E 76 386 9
E 77 78 1
E 77 381 12
E 77 398 9
E 78 383 12
E 78 400 9
E 79 80 1
E 79 349 8
E 79 350 7
E 79 362 5
E 80 81 14
E 80 351 8
E 80 363 5
E 81 82 1
E 81 364 8
E 81 375 5
E 82 365 8
E 82 376 5
E 83 84 1
E 83 331 8
E 83 332 7
E 83 338 3
E 84 85 14
E 84 333 8
E 84 339 3
E 85 86 1
E 85 342 8
E 85 352 3
E 86 343 8
E 86 353 3
E 87 88 1
E 87 319 7
E 87 331 15
E 88 89 14
E 88 333 15
E 89 90 1
E 89 342 15
E 90 343 15
E 91 92 1
E 91 472 11
E 91 476 7
E 92 93 14
E 92 474 11
E 93 94 1
E 93 480 11
E 94 482 11
E 95 96 1
E 95 450 12
E 95 454 7
E 95 469 8
E 96 97 14
E 96 452 12
E 96 471 8
E 97 98 1
E 97 466 12
E 97 477 8
E 98 468 12
E 98 479 8
E 98 505 76
E 99 100 1
E 99 401 62
E 99 436 7
E 99 442 6
E 100 101 14
E 100 432 13
E 100 445 6
E 101 102 1
E 101 458 6
E 102 461 6
E 102 493 76
E 103 104 1
E 103 356 9
E 103 360 7
E 103 377 12
E 104 105 14
E 104 358 9
E 104 378 12
E 105 106 1
E 105 371 9
E 105 389 12
E 106 372 9
E 106 385 7
E 106 390 12
E 107 108 1
E 107 336 13
E 107 341 7
E 107 354 8
E 108 109 14
E 108 337 13
E 108 355 8
E 109 110 1
E 109 348 13
E 109 366 8
E 110 350 13
E 110 367 7
E 110 368 8
E 111 112 1
E 111 322 15
E 111 325 7
E 111 334 6
E 112 113 14
E 112 323 15
E 112 335 6
E 113 114 1
E 113 330 15
E 113 346 6
E 114 332 15
E 114 347 6
E 114 349 7
E 115 116 1
E 115 310 15
E 115 314 7
E 115 320 6
E 116 117 14
E 116 311 15
E 116 321 6
E 117 118 1
E 117 317 15
E 117 327 6
E 118 319 15
E 118 329 6
E 118 331 7
E 119 120 1
E 119 291 10
E 119 295 7
E 119 304 13
E 120 121 14
E 120 293 10
E 120 307 13
E 121 122 1
E 121 299 10
E 121 313 13
E 122 301 10
E 122 315 13
E 123 124 1
E 123 285 7
E 123 291 13
E 124 125 14
E 124 293 13
E 125 126 1
E 125 299 13
E 126 301 13
E 127 128 1
E 127 256 7
E 127 257 7
E 128 129 14
E 128 259 7
E 129 130 1
E 129 261 7
E 130 263 7
E 131 132 1
E 131 244 7
E 131 246 5
E 131 257 16
E 132 133 14
E 132 247 5
E 132 259 16
E 133 134 1
E 133 252 5
E 133 261 16
E 134 253 5
E 134 263 16
E 135 136 1
E 135 231 7
E 135 246 18
E 136 137 14
E 136 247 18
E 137 138 1
E 137 252 18
E 138 253 18
E 139 140 1
E 139 455 11
E 140 141 14
E 140 456 11
E 141 142 1
E 141 475 11
E 142 476 11
E 143 144 1
E 143 326 8
E 143 344 13
E 144 145 14
E 144 328 8
E 144 345 13
E 145 146 1
E 145 340 8
E 145 357 13
E 146 341 8
E 146 354 7
E 146 360 13
E 147 148 1
E 147 309 22
E 147 316 6
E 147 326 15
E 148 149 14
E 148 318 6
E 148 328 15
E 149 150 1
E 149 324 6
E 149 340 15
E 150 325 6
E 150 334 7
E 150 341 15
E 151 152 1
E 151 302 6
E 151 316 17
E 152 153 14
E 152 305 6
E 152 318 17
E 153 154 1
E 153 312 6
E 153 324 17
E 154 314 6
E 154 320 7
E 154 325 17
E 155 156 1
E 155 159 74
E 155 267 7
E 155 270 25
E 156 157 14
E 156 160 74
E 156 271 25
E 157 158 1
E 157 161 74
E 157 278 25
E 158 162 74
E 158 279 25
E 159 160 1
E 159 255 9
E 160 161 14
E 160 258 9
E 161 162 1
E 161 260 9
E 162 262 9
E 163 164 1
E 163 213 7
E 163 216 8
E 164 165 14
E 164 217 8
E 165 166 1
E 165 221 8
E 166 222 8
E 167 168 1
E 167 422 8
E 168 169 14
E 168 423 8
E 169 170 1
E 169 433 8
E 170 434 8
E 170 441 7
E 171 172 1
E 171 405 8
E 171 422 13
E 172 173 14
E 172 407 8
E 172 423 13
E 173 174 1
E 173 416 8
E 173 433 13
E 174 418 8
E 174 428 7
E 174 434 13
E 175 176 1
E 175 179 53
E 175 405 13
E 176 177 14
E 176 180 53
E 176 407 13
E 177 178 1
E 177 181 53
E 177 416 13
E 178 182 53
E 178 418 13
E 178 432 31
E 179 180 1
E 179 183 23
E 180 181 14
E 180 184 23
E 181 182 1
E 181 185 23
E 182 186 23
E 182 379 7
E 183 184 1
E 183 308 51
E 184 185 14
E 184 309 51
E 185 186 1
E 186 344 22
E 186 377 33
E 187 188 1
E 187 274 13
E 187 308 52
E 188 189 14
E 188 276 13
E 188 309 52
E 189 190 1
E 189 282 13
E 190 284 13
E 190 290 7
E 191 192 1
E 191 268 13
E 191 274 10
E 192 193 14
E 192 269 13
E 192 276 10
E 193 194 1
E 193 272 13
E 193 282 10
E 194 273 13
E 194 280 7
E 194 284 10
E 195 196 1
E 195 264 25
E 195 268 10
E 196 197 14
E 196 265 25
E 196 269 10
E 197 198 1
E 197 266 25
E 197 272 10
E 198 267 25
E 198 270 7
E 198 273 10
E 199 200 1
E 199 234 16
E 199 264 83
E 200 201 14
E 200 236 16
E 200 265 83
E 201 202 1
E 201 240 16
E 201 266 83
E 202 242 16
E 202 255 7
E 202 267 83
E 203 204 1
E 203 223 16
E 203 234 7
E 204 205 14
E 204 225 16
E 204 236 7
E 205 206 1
E 205 228 16
E 205 240 7
E 206 230 16
E 206 242 7
E 206 243 7
E 207 208 1
E 207 223 5
E 208 225 5
E 208 227 8
E 209 210 1
E 209 219 18
E 209 227 6
E 209 228 5
E 210 220 18
E 210 230 5
E 210 232 7
E 211 212 6
E 212 213 1
E 212 214 8
E 213 215 8
E 214 215 1
E 214 219 19
E 215 216 7
E 215 220 19
E 216 217 1
E 216 224 19
E 217 221 14
E 217 226 19
E 218 219 6
E 218 227 18
E 219 220 1
E 220 224 7
E 221 222 1
E 221 229 19
E 222 231 19
E 223 225 1
E 224 226 1
E 224 232 18
E 225 228 14
E 226 229 14
E 226 233 18
E 228 230 1
E 229 231 1
E 229 238 18
E 230 235 7
E 231 239 18
E 232 233 1
E 232 235 5
E 233 237 5
E 233 238 14
E 234 236 1
E 235 237 1
E 235 243 16
E 236 240 14
E 237 241 14
E 237 245 16
E 238 239 1
E 238 241 5
E 239 244 5
E 239 246 7
E 240 242 1
E 241 244 1
E 241 250 16
E 242 248 7
E 243 245 1
E 243 248 7
E 244 251 16
E 245 249 7
E 245 250 14
E 246 247 1
E 247 252 14
E 248 249 1
E 248 255 16
E 249 254 14
E 249 258 16
E 250 251 1
E 250 254 7
E 251 256 7
E 251 257 7
E 252 253 1
E 254 256 1
E 254 260 16
E 255 258 1
E 256 262 16
E 257 259 1
E 258 260 14
E 259 261 14
E 260 262 1
E 261 263 1
E 264 265 1
E 265 266 14
E 266 267 1
E 268 269 1
E 269 272 14
E 270 271 1
E 270 275 10
E 271 277 10
E 271 278 14
E 272 273 1
E 273 275 7
E 274 276 1
E 275 277 1
E 275 280 13
E 276 282 14
E 277 281 13
E 277 283 14
E 278 279 1
E 278 283 10
E 279 285 10
E 280 281 1
E 280 286 10
E 281 287 10
E 281 288 14
E 282 284 1
E 283 285 1
E 283 288 13
E 284 286 7
E 285 289 13
E 286 287 1
E 286 290 13
E 287 292 13
E 287 294 14
E 288 289 1
E 288 294 10
E 289 291 7
E 289 295 10
E 290 292 1
E 290 296 8
E 291 293 1
E 292 297 8
E 292 298 14
E 293 299 14
E 294 295 1
E 294 298 13
E 295 300 13
E 296 297 1
E 296 302 15
E 297 303 14
E 297 305 15
E 298 300 1
E 298 303 8
E 299 301 1
E 300 304 7
E 300 306 8
E 302 305 1
E 303 306 1
E 303 312 15
E 304 307 1
E 304 310 8
E 305 312 14
E 306 310 7
E 306 314 15
E 307 311 8
E 307 313 14
E 308 309 1
E 310 311 1
E 311 317 14
E 312 314 1
E 313 315 1
E 313 317 8
E 315 319 8
E 316 318 1
E 317 319 1
E 318 324 14
E 320 321 1
E 320 322 2
E 321 323 2
E 321 327 14
E 322 323 1
E 323 330 14
E 324 325 1
E 326 328 1
E 327 329 1
E 327 330 2
E 328 340 14
E 329 332 2
E 330 332 1
E 331 333 1
E 333 342 14
E 334 335 1
E 334 336 2
E 335 337 2
E 335 346 14
E 336 337 1
E 337 348 14
E 338 339 1
E 338 349 12
E 339 351 12
E 339 352 14
E 340 341 1
E 342 343 1
E 344 345 1
E 344 379 38
E 345 357 14
E 345 380 38
E 346 347 1
E 346 348 2
E 347 350 2
E 348 350 1
E 349 351 1
E 351 364 14
E 352 353 1
E 352 364 12
E 353 359 7
E 353 365 12
E 354 355 1
E 354 356 4
E 355 358 4
E 355 366 14
E 356 358 1
E 357 360 1
E 357 391 38
E 358 371 14
E 359 361 1
E 359 370 12
E 360 392 38
E 361 373 14
E 362 363 1
E 362 367 8
E 363 369 8
E 363 375 14
E 364 365 1
E 365 370 7
E 366 368 1
E 366 371 4
E 367 369 1
E 368 372 4
E 369 381 14
E 371 372 1
E 373 374 1
E 375 376 1
E 375 381 8
E 376 382 7
E 376 383 8
E 377 378 1
E 377 397 26
E 378 389 14
E 378 399 26
E 379 380 1
E 379 425 66
E 380 391 14
E 380 427 66
E 381 383 1
E 382 384 1
E 382 387 8
E 383 387 7
E 384 388 8
E 384 393 14
E 385 386 1
E 386 398 14
E 387 388 1
E 389 390 1
E 391 392 1
E 391 435 66
E 392 397 7
E 392 436 66
E 393 394 1
E 395 396 1
E 396 403 14
E 397 399 1
E 397 401 4
E 398 400 1
E 399 402 4
E 399 410 22
E 401 402 1
E 402 412 19
E 402 414 22
E 403 404 1
E 405 407 1
E 406 408 1
E 407 416 14
E 408 417 14
E 409 411 1
E 410 413 1
E 410 414 4
E 411 420 14
E 412 432 30
E 412 483 91
E 413 415 4
E 414 415 1
E 415 424 14
E 416 418 1
E 417 419 1
E 418 425 7
E 419 483 79
E 419 485 83
E 420 421 1
E 421 483 77
E 421 485 81
E 422 423 1
E 423 433 14
E 424 426 1
E 425 427 1
E 425 428 8
E 426 485 76
E 427 430 8
E 427 435 14
E 428 429 1
E 428 430 1
E 429 431 1
E 429 437 12
E 430 431 1
E 430 439 14
E 431 438 12
E 431 450 22
E 433 434 1
E 434 437 7
E 435 436 1
E 435 439 8
E 436 440 8
E 437 438 1
E 437 441 8
E 438 444 8
E 438 453 14
E 439 440 1
E 439 453 13
E 440 448 7
E 440 454 13
E 441 443 1
E 441 444 1
E 442 445 1
E 442 448 2
E 443 446 1
E 443 447 1
E 444 447 1
E 444 457 14
E 445 451 2
E 445 458 14
E 446 449 1
E 446 455 11
E 447 449 1
E 447 459 14
E 448 450 1
E 448 451 1
E 449 456 11
E 449 462 14
E 450 452 1
E 451 452 1
E 451 464 14
E 452 466 14
E 453 454 1
E 453 457 8
E 454 460 8
E 455 456 1
E 456 475 14
E 457 459 1
E 457 460 1
E 458 461 1
E 458 464 2
E 459 462 1
E 459 463 1
E 460 463 1
E 460 469 7
E 461 467 2
E 462 465 1
E 462 475 11
E 463 465 1
E 463 470 7
E 464 466 1
E 464 467 1
E 465 472 7
E 465 476 11
E 466 468 1
E 467 468 1
E 468 497 76
E 469 470 1
E 469 471 1
E 470 472 1
E 470 473 1
E 471 473 1
E 471 477 14
E 472 474 1
E 473 474 1
E 473 478 14
E 474 480 14
E 475 476 1
E 477 478 1
E 477 479 1
E 478 480 1
E 478 481 1
E 479 481 1
E 480 482 1
E 481 482 1
E 481 517 76
E 483 484 1
E 483 493 43
E 484 487 14
E 484 494 43
E 485 486 1
E 486 489 14
E 487 488 1
E 487 501 43
E 488 502 43
E 489 490 1
E 491 492 1
E 491 499 25
E 492 500 25
E 493 494 1
E 494 501 14
E 495 496 1
E 496 503 14
E 497 498 1
E 497 505 12
E 498 507 12
E 498 512 14
E 499 500 1
E 499 506 10
E 500 509 10
E 500 515 14
E 501 502 1
E 502 508 8
E 503 504 1
E 505 507 1
E 505 517 9
E 506 508 1
E 506 509 1
E 507 518 9
E 507 519 14
E 508 510 1
E 509 510 1
E 509 523 22
E 510 525 22
E 511 513 1
E 512 514 1
E 512 519 12
E 513 521 14
E 514 520 12
E 515 516 1
E 517 518 1
E 518 524 14
E 519 520 1
E 519 524 9
E 520 527 9
E 521 522 1
E 523 525 1
E 523 526 1
E 524 527 1
E 525 528 1
E 525 529 7
E 526 528 1
E 526 531 14
E 528 530 7
E 528 532 14
E 529 530 1
E 530 535 14
E 531 532 1
E 531 533 1
E 532 534 1
E 532 535 7
E 533 534 1
E 534 536 7
E 534 547 30
E 535 536 1
E 537 538 1
E 537 539 1
E 538 540 1
E 538 541 9
E 539 540 1
E 539 543 14
E 540 542 9
E 540 544 14
E 541 542 1
E 542 550 14
E 543 544 1
E 543 545 1
E 544 546 1
E 544 550 9
E 545 546 1
E 546 549 7
E 546 552 9
E 547 548 1
E 548 555 14
E 549 551 1
E 549 553 9
E 550 552 1
E 551 554 9
E 551 557 14
E 552 553 7
E 553 554 1
E 553 559 10
E 554 560 10
E 555 556 1
E 557 558 1
E 557 561 19
E 558 562 19
E 559 560 1
E 560 561 14
E 561 562 1
E 1 563 100000
E 2 563 100000
E 3 563 100000
E 4 563 100000
E 5 564 100000
E 6 564 100000
E 7 565 100000
E 8 565 100000
E 9 565 100000
E 10 565 100000
E 11 566 100000
E 12 566 100000
E 13 566 100000
E 14 566 100000
E 15 567 100000
E 16 567 100000
E 17 567 100000
E 18 567 100000
E 19 568 100000
E 20 568 100000
E 21 568 100000
E 22 568 100000
E 23 569 100000
E 24 569 100000
E 25 569 100000
E 26 569 100000
E 27 570 100000
E 28 570 100000
E 29 570 100000
E 30 570 100000
E 31 571 100000
E 32 571 100000
E 33 571 100000
E 34 571 100000
E 35 572 100000
E 36 572 100000
E 37 572 100000
E 38 572 100000
E 39 573 100000
E 40 573 100000
E 41 573 100000
E 42 573 100000
E 43 574 100000
E 44 574 100000
E 45 574 100000
E 46 574 100000
E 47 575 100000
E 48 575 100000
E 49 575 100000
E 50 575 100000
E 51 576 100000
E 52 576 100000
E 53 576 100000
E 54 576 100000
E 55 577 100000
E 56 577 100000
E 57 577 100000
E 58 577 100000
E 59 578 100000
E 60 578 100000
E 61 578 100000
E 62 578 100000
E 63 579 100000
E 64 579 100000
E 65 579 100000
E 66 579 100000
E 67 580 100000
E 68 580 100000
E 69 580 100000
E 70 580 100000
E 71 581 100000
E 72 581 100000
E 73 581 100000
E 74 581 100000
E 75 582 100000
E 76 582 100000
E 77 582 100000
E 78 582 100000
E 79 583 100000
E 80 583 100000
E 81 583 100000
E 82 583 100000
E 83 584 100000
E 84 584 100000
E 85 584 100000
E 86 584 100000
E 87 585 100000
E 88 585 100000
E 89 585 100000
E 90 585 100000
E 91 586 100000
E 92 586 100000
E 93 586 100000
E 94 586 100000
E 95 587 100000
E 96 587 100000
E 97 587 100000
E 98 587 100000
E 99 588 100000
E 100 588 100000
E 101 588 100000
E 102 588 100000
E 103 589 100000
E 104 589 100000
E 105 589 100000
E 106 589 100000
E 107 590 100000
E 108 590 100000
E 109 590 100000
E 110 590 100000
E 111 591 100000
E 112 591 100000
E 113 591 100000
E 114 591 100000
E 115 592 100000
E 116 592 100000
E 117 592 100000
E 118 592 100000
E 119 593 100000
E 120 593 100000
E 121 593 100000
E 122 593 100000
E 123 594 100000
E 124 594 100000
E 125 594 100000
E 126 594 100000
E 127 595 100000
E 128 595 100000
E 129 595 100000
E 130 595 100000
E 131 596 100000
E 132 596 100000
E 133 596 100000
E 134 596 100000
E 135 597 100000
E 136 597 100000
E 137 597 100000
E 138 597 100000
E 139 598 100000
E 140 598 100000
E 141 598 100000
E 142 598 100000
E 143 599 100000
E 144 599 100000
E 145 599 100000
E 146 599 100000
E 147 600 100000
E 148 600 100000
E 149 600 100000
E 150 600 100000
E 151 601 100000
E 152 601 100000
E 153 601 100000
E 154 601 100000
E 155 602 100000
E 156 602 100000
E 157 602 100000
E 158 602 100000
E 159 603 100000
E 160 603 100000
E 161 603 100000
E 162 603 100000
E 163 604 100000
E 164 604 100000
E 165 604 100000
E 166 604 100000
E 167 605 100000
E 168 605 100000
E 169 605 100000
E 170 605 100000
E 171 606 100000
E 172 606 100000
E 173 606 100000
E 174 606 100000
E 175 607 100000
E 176 607 100000
E 177 607 100000
E 178 607 100000
E 179 608 100000
E 180 608 100000
E 181 608 100000
E 182 608 100000
E 183 609 100000
E 184 609 100000
E 185 609 100000
E 186 609 100000
E 187 610 100000
E 188 610 100000
E 189 610 100000
E 190 610 100000
E 191 611 100000
E 192 611 100000
E 193 611 100000
E 194 611 100000
E 195 612 100000
E 196 612 100000
E 197 612 100000
E 198 612 100000
E 199 613 100000
E 200 613 100000
E 201 613 100000
E 202 613 100000
E 203 614 100000
E 204 614 100000
E 205 614 100000
E 206 614 100000
E 207 615 100000
E 208 615 100000
E 209 615 100000
E 210 615 100000
E 211 564 100000
END

SECTION Terminals
Terminals 53
T 563
T 564
T 565
T 566
T 567
T 568
T 569
T 570
T 571
T 572
T 573
T 574
T 575
T 576
T 577
T 578
T 579
T 580
T 581
T 582
T 583
T 584
T 585
T 586
T 587
T 588
T 589
T 590
T 591
T 592
T 593
T 594
T 595
T 596
T 597
T 598
T 599
T 600
T 601
T 602
T 603
T 604
T 605
T 606
T 607
T 608
T 609
T 610
T 611
T 612
T 613
T 614
T 615
END

SECTION Tree Decomposition
c We do not guarantee that this tree decomposition has minimum width.
s td 519 19 615
b 1 2 3 563
b 2 4 3 563
b 3 563 1
b 4 1 558
b 5 5 564 211
b 6 564 211 6
b 7 211 6 212
b 8 90 89 585 343
b 9 94 93 586 482
b 10 6 212 214 218
b 11 26 25 569 30
b 12 126 594 125 301
b 13 130 129 595 263
b 14 138 137 597 253
b 15 139 140 598 455
b 16 142 598 141 476
b 17 22 568 21 545
b 18 42 573 41 504
b 19 166 604 165 222
b 20 167 605 168 422
b 21 10 565 9 562
b 22 207 223 208 615
b 23 50 575 49 527
b 24 212 214 213 218
b 25 14 566 13 558
b 26 62 578 61 404
b 27 347 350 114 346
b 28 356 354 358 103
b 29 359 370 361 353
b 30 362 367 363 79
b 31 368 372 366 110
b 32 373 374 69 361
b 33 388 64 384 387
b 34 389 390 105 378
b 35 400 78 398 74
b 36 401 99 397 402
b 37 405 171 407 175
b 38 406 408 63 74
b 39 409 411 55 66
b 40 412 432 402 483
b 41 413 72 415 410
b 42 414 415 410 402
b 43 417 408 65 419
b 44 420 57 411 421
b 45 424 426 73 415
b 46 429 428 431 437
b 47 442 445 99 448
b 48 443 446 447 441
b 49 467 464 461 468
b 50 479 477 481 98
b 51 484 487 494 483
b 52 486 44 489 485
b 53 488 487 502 43
b 54 490 39 489 46
b 55 491 499 492 43
b 56 506 508 509 499
b 57 510 508 509 525
b 58 511 35 513 31
b 59 515 516 45 500
b 60 556 555 7 18
b 61 520 514 519 527
b 62 536 30 535 534
b 63 537 538 539 19
b 64 547 548 15 534
b 65 554 560 551 553
b 66 227 208 218 209
b 67 234 199 203 236
b 68 262 162 260 256
b 69 264 199 265 195
b 70 268 191 195 269
b 71 274 191 276 187
b 72 279 158 278 285
b 73 296 302 290 297
b 74 308 183 187 309
b 75 315 122 313 319
b 76 316 151 147 318
b 77 322 320 323 111
b 78 326 328 143 147
b 79 329 327 118 332
b 80 336 334 107 337
b 81 338 339 83 349
b 82 580 68 69 70 67
b 83 608 180 179 181 182
b 84 607 177 175 176 178
b 85 89 585 88 343 342
b 86 585 88 343 342 87
b 87 88 343 342 333 87
b 88 589 104 105 106 103
b 89 588 101 100 99 102
b 90 343 342 333 86 87
b 91 342 333 85 86 87
b 92 93 586 92 480 482
b 93 586 92 480 91 482
b 94 92 480 474 91 482
b 95 587 96 95 97 98
b 96 584 84 85 86 83
b 97 25 569 24 29 30
b 98 569 24 29 30 23
b 99 24 29 28 30 23
b 100 581 73 72 74 71
b 101 101 458 100 99 102
b 102 577 56 57 58 55
b 103 575 49 48 47 527
b 104 49 48 524 47 527
b 105 48 524 518 47 527
b 106 524 518 47 519 527
b 107 572 36 37 38 35
b 108 573 41 40 504 39
b 109 41 40 503 504 39
b 110 40 503 504 496 39
b 111 604 165 164 222 163
b 112 165 164 222 221 163
b 113 164 222 221 217 163
b 114 611 192 191 193 194
b 115 565 9 8 562 7
b 116 9 8 562 561 7
b 117 8 562 561 560 7
b 118 612 196 197 198 195
b 119 129 595 128 261 263
b 120 595 128 261 263 127
b 121 128 261 263 259 127
b 122 562 561 558 560 7
b 123 561 557 558 560 7
b 124 605 168 169 422 170
b 125 168 169 423 422 170
b 126 169 423 422 433 170
b 127 137 597 136 253 252
b 128 597 136 253 252 135
b 129 136 253 252 247 135
b 130 423 422 433 170 172
b 131 422 433 170 172 171
b 132 140 598 141 455 456
b 133 598 141 455 456 476
b 134 141 455 456 475 476
b 135 567 17 16 18 15
b 136 455 456 475 446 476
b 137 456 475 449 446 476
b 138 475 449 446 462 476
b 139 449 446 462 447 476
b 140 446 462 447 476 441
b 141 570 29 28 30 27
b 142 574 44 45 46 43
b 143 578 61 60 404 59
b 144 61 60 404 403 59
b 145 60 404 403 396 59
b 146 582 77 76 78 75
b 147 404 403 396 58 59
b 148 403 396 57 58 59
b 149 590 109 108 110 107
b 150 594 125 124 301 123
b 151 125 124 301 299 123
b 152 124 301 299 293 123
b 153 566 13 12 558 11
b 154 13 12 557 558 11
b 155 12 557 558 551 11
b 156 600 148 149 147 150
b 157 610 189 188 190 187
b 158 614 204 206 205 203
b 159 571 32 33 34 31
b 160 568 20 21 19 545
b 161 20 21 539 19 545
b 162 21 543 539 19 545
b 163 599 144 143 145 146
b 164 480 474 478 91 482
b 165 603 159 160 161 162
b 166 503 504 496 39 37
b 167 504 496 39 37 38
b 168 606 172 171 173 174
b 169 576 52 53 54 51
b 170 609 185 184 183 186
b 171 189 188 282 190 187
b 172 602 157 158 155 156
b 173 185 184 183 181 186
b 174 596 132 133 134 131
b 175 592 117 115 116 118
b 176 593 121 120 122 119
b 177 583 81 82 80 79
b 178 222 221 217 231 163
b 179 221 217 229 231 163
b 180 601 153 152 151 154
b 181 214 213 219 215 218
b 182 591 113 112 111 114
b 183 213 219 215 218 163
b 184 253 252 247 135 134
b 185 252 247 135 133 134
b 186 261 263 259 127 133
b 187 263 259 127 133 134
b 188 301 299 293 123 122
b 189 299 293 123 121 122
b 190 543 539 19 545 544
b 191 613 200 199 201 202
b 192 579 65 63 64 66
b 193 29 28 30 535 23 27
b 194 557 558 560 551 11 7
b 195 28 30 535 23 530 27
b 196 30 535 23 530 534 27
b 197 535 23 530 532 534 27
b 198 374 59 69 70 361
b 199 370 365 67 361 353
b 200 390 105 106 71 378
b 201 426 73 415 74 485
b 202 508 509 499 525 502
b 203 516 45 46 31 500
b 204 538 539 540 19 541
b 205 539 540 19 545 544 541
b 206 540 19 545 542 544 541
b 207 555 7 17 18 548
b 208 223 208 615 225 203
b 209 302 305 151 290 297
b 210 23 530 532 534 27 527
b 211 396 56 57 58 395 59
b 212 496 495 36 39 37 38
b 213 188 282 190 276 187 309
b 214 247 135 246 132 133 134
b 215 259 127 257 132 133 134
b 216 135 246 132 133 134 231
b 217 127 257 132 133 134 256
b 218 293 123 121 120 122 291
b 219 19 545 542 544 541 522
b 220 123 121 120 122 291 285
b 221 560 551 559 553 11 7
b 222 551 559 553 549 11 7
b 223 559 553 549 11 7 18
b 224 553 549 11 552 7 18
b 225 549 11 546 552 7 18
b 226 11 546 552 7 18 545
b 227 546 552 7 18 545 544
b 228 552 7 550 18 545 544
b 229 84 333 85 86 339 83
b 230 56 57 58 395 411 55 59
b 231 57 58 395 411 55 59 421
b 232 395 411 55 59 70 421
b 233 411 55 59 70 421 66
b 234 55 394 59 70 421 66
b 235 394 59 70 421 66 393
b 236 432 100 178 402 483
b 237 509 499 523 500 525 502
b 238 518 47 519 527 507 517
b 239 47 519 527 507 482 517
b 240 433 170 434 172 171 173
b 241 170 434 172 171 173 441
b 242 462 447 476 459 465 441
b 243 447 476 459 444 465 441
b 244 476 459 444 91 465 441
b 245 474 472 473 478 91 482
b 246 104 105 106 358 378 103
b 247 184 183 180 181 186 309
b 248 192 191 276 193 194 269
b 249 196 265 197 198 195 269
b 250 200 199 236 201 202 265
b 251 208 615 218 209 225 203
b 252 615 218 210 209 225 203
b 253 219 215 218 209 163 220
b 254 215 218 209 163 216 220
b 255 217 229 226 231 163 216
b 256 229 226 231 238 163 216
b 257 148 149 328 147 150 318
b 258 434 172 171 173 174 437 441
b 259 172 171 173 407 174 437 441
b 260 171 173 407 174 175 437 441
b 261 173 407 174 416 175 437 441
b 262 407 174 416 175 176 437 441
b 263 495 36 39 37 38 35 46
b 264 36 39 37 38 35 513 46
b 265 39 37 38 35 513 489 46
b 266 37 38 521 35 513 489 46
b 267 38 521 35 513 522 489 46
b 268 59 69 70 421 66 393 361
b 269 521 35 513 33 522 489 46
b 270 246 132 133 134 131 239 231
b 271 257 132 133 134 131 251 256
b 272 132 133 134 131 239 251 231 256
b 273 131 239 244 251 231 256
b 274 239 244 251 231 238 256
b 275 244 251 241 231 238 256
b 276 251 241 231 238 250 256
b 277 241 231 238 237 250 256
b 278 7 550 17 18 548 545 544
b 279 550 17 18 548 545 542 544
b 280 121 120 122 291 313 119 285
b 281 120 122 291 313 119 307 285
b 282 122 291 313 119 307 285 319
b 283 291 313 119 307 285 289 319
b 284 313 119 307 317 285 289 319
b 285 333 85 86 87 331 339 83
b 286 85 86 87 331 352 339 83
b 287 86 87 331 352 339 83 353
b 288 87 331 352 339 83 353 319
b 289 331 352 339 83 353 118 319
b 290 352 339 83 364 353 118 319
b 291 17 16 18 548 545 542 544 15
b 292 548 545 542 544 15 534
b 293 545 542 544 15 541 522 534
b 294 15 541 533 522 534
b 295 541 533 34 522 534
b 296 533 34 522 531 534
b 297 348 350 109 337 346
b 298 529 525 530 27 54
b 299 528 526 525 530 532
b 300 344 143 186 345 379
b 301 392 360 391 436 397
b 302 371 372 105 358 366
b 303 375 81 376 381 363
b 304 304 300 119 307 310
b 305 303 312 297 298 306
b 306 382 384 387 376 67
b 307 377 378 103 186 397
b 308 469 471 460 95 470
b 309 512 514 53 498 519
b 310 425 418 428 427 379
b 311 438 444 453 431 437
b 312 440 454 448 436 439
b 313 450 95 448 452 431
b 314 466 464 468 97 452
b 315 280 275 194 281 286
b 316 325 111 154 150 324
b 317 505 507 497 98 517
b 318 493 494 51 102 483
b 319 501 487 502 53 494
b 320 487 502 43 53 494 483
b 321 287 292 281 286 294
b 322 288 283 281 294 289
b 323 340 341 149 328 145
b 324 355 354 358 108 366
b 325 399 410 378 397 402
b 326 463 459 460 465 470
b 327 457 459 444 453 460
b 328 369 76 367 381 363
b 329 451 445 464 448 452
b 330 351 339 349 364 80
b 331 311 307 310 317 116
b 332 228 209 225 230 205
b 333 335 334 112 337 346
b 334 233 226 238 237 232
b 335 273 272 198 275 194
b 336 383 387 376 381 78
b 337 271 277 270 156 278
b 338 235 237 232 230 243
b 339 240 205 242 236 201
b 340 385 106 71 75 386
b 341 245 237 243 250 249
b 342 224 226 216 220 232
b 343 380 391 427 345 379
b 344 248 243 242 249 255
b 345 435 391 427 436 439
b 346 254 260 250 249 256
b 347 430 428 431 427 439
b 348 258 160 260 249 255
b 349 357 360 391 145 345
b 350 267 266 202 155 198
b 351 284 282 190 194 286
b 352 330 113 323 327 332
b 353 295 300 119 294 289
b 354 314 312 306 115 154
b 355 321 320 323 116 327
b 356 305 152 151 312 290 297
b 357 77 76 381 78 398 75
b 358 144 328 143 145 146 345
b 359 408 65 63 64 419 74
b 360 65 63 64 419 66 393 74
b 361 32 513 33 34 31 526
b 362 157 158 161 155 156 278
b 363 204 206 225 205 203 236
b 364 365 82 67 361 364 353
b 365 117 317 115 116 327 118
b 366 68 69 70 384 67 361
b 367 69 70 421 66 393 384 67 361
b 368 499 523 492 500 525 502 43
b 369 183 180 179 181 186 187 309
b 370 272 197 198 275 193 194 269
b 371 266 201 202 265 155 197 198
b 372 96 471 95 97 98 452
b 373 477 481 478 471 97 98
b 374 481 478 471 97 98 482 517
b 375 159 160 161 162 255 155
b 376 177 181 416 175 176 178
b 377 52 53 54 494 498 51
b 378 153 152 151 312 154 324
b 379 73 72 415 398 74 71 485
b 380 472 473 478 91 465 470 482
b 381 473 478 471 91 465 470 482
b 382 158 161 162 155 156 278 285
b 383 44 45 489 46 492 43 485
b 384 45 489 46 31 492 500 43 485
b 385 191 276 193 194 195 269 187
b 386 199 203 236 201 202 265 195
b 387 445 458 464 100 99 448 452
b 388 339 83 349 364 80 353 118 319
b 389 83 349 364 80 353 118 319 332
b 390 72 415 410 398 74 71 386 485
b 391 415 410 398 74 71 386 402 485
b 392 458 464 461 100 99 102 448 452
b 393 226 231 238 237 163 216 220 232
b 394 514 27 53 54 498 519 527
b 395 320 323 111 115 116 154 327
b 396 277 270 156 278 275 283 281
b 397 270 155 156 278 198 275 283 281
b 398 292 281 286 294 290 297 298
b 399 523 31 492 500 526 525 502 43
b 400 63 64 419 66 393 387 78 74
b 401 64 419 66 393 384 387 78 74
b 402 160 161 162 260 249 255 155 156
b 403 161 162 260 249 255 155 156 278 285
b 404 162 260 249 255 256 155 156 278 285
b 405 260 250 249 255 256 155 156 278 285
b 406 180 179 181 182 176 186 187 309
b 407 179 181 182 175 176 186 187 309
b 408 181 182 416 175 176 178 186 187 309
b 409 182 416 175 176 178 186 187 309 379
b 410 35 513 33 522 489 46 31 492
b 411 513 33 34 522 489 46 31 492 526
b 412 33 34 522 531 489 46 31 492 526
b 413 34 522 531 489 46 31 492 526 534
b 414 531 489 46 31 492 526 532 534
b 415 489 46 31 492 500 526 532 534 43 485
b 416 31 492 500 526 525 532 534 502 43 485
b 417 526 525 530 532 534 502 43 485
b 418 525 530 532 534 27 502 43 54 485
b 419 530 532 534 27 502 43 54 527 485
b 420 27 502 43 53 54 498 519 527 485
b 421 152 151 312 290 297 154 318 324
b 422 151 312 290 297 154 147 318 324
b 423 218 210 209 163 216 220 225 203
b 424 210 209 163 216 220 232 225 230 203
b 425 209 163 216 220 232 225 230 205 203
b 426 231 238 237 163 216 220 232 250 256
b 427 502 43 53 54 494 498 519 527 483 485
b 428 53 54 494 498 519 527 51 483 485
b 429 494 498 519 527 51 102 483 485
b 430 372 105 106 358 366 75 110
b 431 341 149 328 150 107 145 146
b 432 334 112 111 150 107 337 346
b 433 76 367 381 78 363 398 75 386
b 434 459 444 453 460 91 465 470 441
b 435 174 418 428 416 175 176 437 441
b 436 206 225 230 243 205 242 203 236
b 437 282 190 276 193 194 286 187 309
b 438 190 276 193 194 286 290 187 309
b 439 276 193 194 195 269 286 290 187 309
b 440 464 461 100 99 102 468 97 448 452
b 441 461 100 99 51 102 468 97 448 452
b 442 444 453 460 91 465 470 431 437 441
b 443 498 519 527 507 497 51 102 483 485
b 444 410 398 74 71 386 378 397 402 485
b 445 478 471 91 465 470 97 98 482 517
b 446 519 527 507 497 51 102 482 517 483 485
b 447 507 497 51 102 98 482 517 483 485
b 448 497 51 102 468 98 482 517 483 485
b 449 454 453 460 95 448 436 439
b 450 354 358 108 366 103 107 146
b 451 350 109 79 110 114 337 346
b 452 109 108 366 79 110 107 114 337 346
b 453 113 112 323 111 327 114 332 346
b 454 105 106 358 366 71 75 110 378 103
b 455 106 358 366 71 75 110 386 378 103
b 456 149 328 147 150 318 324 107 145 146
b 457 328 143 147 150 318 324 107 145 146 345
b 458 112 323 111 327 150 107 114 332 337 346
b 459 300 119 307 310 294 289 298 306
b 460 421 66 393 384 67 361 483 485
b 461 367 381 78 363 398 75 79 110 386
b 462 349 364 80 353 79 114 118 319 332
b 463 119 307 310 317 294 285 289 298 306 319
b 464 307 310 317 294 285 289 298 306 116 319
b 465 310 317 294 285 289 298 306 115 116 319
b 466 237 163 216 220 232 230 243 250 249 256
b 467 163 216 220 232 225 230 243 205 203 250 249 256
b 468 225 230 243 205 242 203 236 250 249 256
b 469 243 205 242 203 236 250 249 255 256
b 470 205 242 203 236 201 250 249 255 256
b 471 242 203 236 201 202 250 249 255 256
b 472 203 236 201 202 265 250 249 255 256 195
b 473 201 202 265 250 249 255 256 155 197 198 195
b 474 265 250 249 255 256 155 197 198 195 269
b 475 250 249 255 256 155 156 278 197 198 195 269 285
b 476 155 156 278 197 198 275 195 269 283 281 285
b 477 197 198 275 193 194 195 269 283 281 285
b 478 275 193 194 195 269 283 281 286 285
b 479 193 194 195 269 283 281 286 285 290 187 309
b 480 283 281 286 294 285 289 290 187 309
b 481 281 286 294 285 289 290 297 298 187 309
b 482 418 428 416 175 176 178 437 441 427 379
b 483 317 294 285 289 298 306 115 116 327 118 319
b 484 81 82 376 381 363 364 80 79
b 485 419 66 393 384 387 78 74 483 485
b 486 66 393 384 387 67 361 78 74 483 485
b 487 384 387 376 67 361 78 74 483 485
b 488 387 376 67 361 381 78 74 483 485
b 489 82 376 67 361 381 363 364 80 353 79
b 490 428 416 175 176 178 431 437 441 427 439 379
b 491 360 391 436 103 145 146 345 397
b 492 358 108 366 71 75 110 386 378 103 107 146
b 493 391 427 436 439 103 145 146 345 379 397
b 494 312 290 297 298 306 115 154 147 318 324
b 495 471 460 91 95 465 470 97 98 452 482 517
b 496 143 147 150 318 324 107 145 146 186 345 379
b 497 416 175 176 178 431 437 441 427 439 186 187 309 379
b 498 323 111 115 116 154 327 150 107 114 332 337 346
b 499 111 115 116 154 327 150 324 107 114 332 337 346
b 500 100 99 51 102 468 97 448 452 178 402 483
b 501 99 51 102 468 97 448 452 178 436 397 402 483
b 502 376 67 361 381 78 363 74 364 80 353 79 483 485
b 503 453 460 91 95 465 470 448 431 437 441 436 439
b 504 381 78 363 398 74 364 80 353 75 79 110 386 483 485
b 505 51 102 468 97 98 448 452 482 517 178 436 397 402 483 485
b 506 108 366 71 75 79 110 386 378 103 107 114 146 337 346
b 507 398 74 364 80 353 71 75 79 110 386 378 397 402 483 485
b 508 294 285 289 290 297 298 306 115 116 327 118 187 309 319
b 509 290 297 298 306 115 116 154 327 147 318 324 118 187 309 319
b 510 460 91 95 465 470 97 98 448 452 482 517 431 437 441 436 439
b 511 97 98 448 452 482 517 178 431 437 441 436 439 397 402 483 485
b 512 178 431 437 441 427 436 439 186 187 309 379 397 402 483 485
b 513 427 436 439 103 145 146 186 187 309 345 379 397 402 483 485
b 514 115 116 154 327 147 150 318 324 107 114 118 187 309 319 332 337 346
b 515 147 150 318 324 107 114 118 145 146 186 187 309 319 332 337 345 346 379
b 516 364 80 353 71 75 79 110 386 378 114 118 319 332 397 402 483 485
b 517 71 75 79 110 386 378 103 107 114 118 146 319 332 337 346 397 402 483 485
b 518 378 103 107 114 118 146 186 319 332 337 346 397 402 483 485
b 519 103 107 114 118 145 146 186 187 309 319 332 337 345 346 379 397 402 483 485
1 2
2 3
3 4
4 194
194 123
194 221
221 222
222 223
223 224
224 225
225 226
226 227
227 228
228 278
278 279
279 291
291 292
292 293
293 219
219 206
206 205
123 122
293 294
205 190
205 204
122 117
294 295
190 162
117 116
295 296
162 161
116 115
296 413
413 412
412 411
413 414
411 410
414 415
415 416
415 384
416 399
416 417
417 418
418 419
410 269
384 383
399 368
419 420
420 427
427 428
428 429
429 443
443 446
446 447
447 448
448 505
505 511
505 501
511 510
510 503
501 500
510 495
511 512
512 513
513 519
519 515
519 518
518 517
517 516
515 514
516 507
517 506
514 499
514 509
507 504
499 498
509 508
512 497
515 496
506 492
504 502
508 483
497 490
513 493
509 494
498 458
496 457
502 489
483 465
490 482
465 464
464 463
503 442
500 441
495 445
516 462
507 444
506 452
508 481
497 409
492 455
502 488
457 456
504 461
441 440
481 480
409 408
455 454
488 487
487 486
486 485
493 491
494 422
458 453
489 484
482 435
463 459
442 434
462 389
444 391
461 433
440 392
480 479
479 439
479 478
478 477
477 476
476 475
475 474
474 473
475 405
473 472
405 404
472 471
404 403
471 470
470 469
469 468
468 467
467 466
467 425
425 424
476 397
439 438
468 436
403 402
466 426
408 407
424 423
438 437
426 393
407 406
486 460
485 401
422 421
401 400
389 388
391 390
439 385
477 370
473 371
472 386
403 382
397 396
406 369
460 367
269 267
400 360
388 290
390 379
367 268
267 266
290 289
266 265
289 288
265 264
288 287
264 263
287 286
286 285
503 449
498 395
492 450
458 432
463 284
284 283
283 282
282 281
281 280
445 381
445 374
381 380
452 451
481 398
456 431
454 430
435 262
262 261
261 260
260 259
259 258
420 394
392 387
446 239
436 363
402 375
423 254
437 213
393 256
421 378
421 356
385 248
386 250
382 362
369 247
367 366
360 359
423 252
268 235
263 212
426 277
285 229
280 220
374 373
380 245
427 320
428 377
258 241
474 249
239 238
254 253
256 255
252 251
235 234
277 276
220 218
241 240
234 233
276 275
233 232
275 274
232 231
231 230
274 273
230 211
273 272
272 270
272 271
270 216
271 217
495 372
216 214
217 215
411 361
483 365
457 358
489 364
419 210
210 197
197 196
196 195
195 193
456 257
408 376
454 246
368 237
434 244
244 243
243 242
433 357
405 346
429 318
470 339
469 344
387 329
466 338
466 341
425 332
402 348
437 351
393 334
393 342
406 83
447 317
388 330
370 335
371 350
396 337
360 192
379 100
379 201
268 198
264 107
285 91
449 312
395 355
450 324
432 333
280 176
451 297
398 321
431 323
430 302
259 168
363 158
375 165
213 171
378 180
356 209
248 114
250 191
362 172
247 173
366 82
212 167
229 96
245 164
510 313
320 319
377 169
249 118
238 106
240 131
218 189
189 188
255 179
253 183
230 102
500 236
272 174
365 175
358 163
372 95
364 199
361 159
211 148
495 308
251 208
215 187
193 99
257 156
376 84
246 88
478 315
237 202
242 140
357 146
91 90
161 160
171 157
173 170
167 166
164 94
106 105
131 130
188 152
179 178
183 181
148 147
187 186
99 98
140 139
90 87
166 110
94 93
105 104
130 126
152 151
178 113
147 145
186 121
98 97
139 138
87 86
110 109
93 92
104 103
126 125
151 150
113 112
145 144
121 120
138 137
86 85
109 108
125 124
112 111
144 143
120 119
137 136
136 134
134 133
133 132
518 307
499 316
384 203
496 300
490 347
493 343
493 345
278 207
494 305
494 354
417 299
214 185
185 184
184 129
129 128
128 127
482 310
464 331
442 311
418 298
444 325
452 149
291 135
455 340
193 141
488 336
440 314
480 322
383 142
454 200
487 306
491 301
491 349
453 182
453 352
484 177
484 303
459 353
459 304
434 327
434 326
194 155
155 154
154 153
433 328
394 309
392 101
101 89
221 65
404 68
387 47
401 33
388 81
390 41
385 70
385 71
386 67
386 69
382 72
369 74
265 54
395 77
450 28
432 80
282 75
204 63
451 27
430 31
260 37
501 36
394 61
359 38
359 43
373 50
320 51
320 53
251 66
233 39
231 44
196 62
201 45
198 32
236 40
199 29
181 24
24 10
208 22
202 57
202 56
140 48
160 17
97 11
92 9
103 23
150 12
85 8
108 18
124 20
111 19
132 15
207 60
203 59
143 26
200 34
115 21
209 73
119 13
153 25
133 16
410 58
514 79
504 35
490 46
457 78
127 14
461 30
440 49
292 64
383 52
368 55
422 76
391 42
10 7
7 6
6 5
END

EOF
